NAME 
ROWS
 N  OBJ
 L  R0      
 E  R1      
 E  R2      
 E  R3      
 E  R4      
 E  R5      
 E  R6      
 E  R7      
 E  R8      
 E  R9      
 E  R10     
 E  R11     
 E  R12     
 E  R13     
 E  R14     
 E  R15     
 E  R16     
 E  R17     
 E  R18     
 E  R19     
 E  R20     
 E  R21     
 E  R22     
 E  R23     
 E  R24     
 E  R25     
 E  R26     
 E  R27     
 E  R28     
 E  R29     
 E  R30     
COLUMNS
    MARKER    'MARKER'                 'INTORG'
    I0(3)     OBJ       171
    I0(3)     R0        -50
    I0(3)     R1        17
    I0(3)     R30       1
    I1(3)     OBJ       36
    I1(3)     R0        5
    I1(3)     R2        3
    I1(3)     R30       1
    I2(3)     OBJ       -166
    I2(3)     R0        79
    I2(3)     R3        13
    I2(3)     R30       1
    I3(3)     OBJ       96
    I3(3)     R0        -41
    I3(3)     R4        14
    I3(3)     R30       1
    I4(3)     OBJ       152
    I4(3)     R0        12
    I4(3)     R5        9
    I4(3)     R30       1
    I5(3)     OBJ       161
    I5(3)     R0        54
    I5(3)     R6        13
    I5(3)     R30       1
    I6(3)     OBJ       169
    I6(3)     R0        52
    I6(3)     R7        3
    I6(3)     R30       1
    I7(3)     OBJ       11
    I7(3)     R0        88
    I7(3)     R8        13
    I7(3)     R30       1
    I8(2)     OBJ       153
    I8(2)     R0        106
    I8(2)     R30       1
    I9(3)     OBJ       150
    I9(3)     R0        8
    I9(3)     R10       5
    I9(3)     R30       1
    I10(3)    OBJ       -106
    I10(3)    R0        50
    I10(3)    R11       19
    I10(3)    R30       1
    I11(3)    OBJ       41
    I11(3)    R0        -134
    I11(3)    R12       -1
    I11(3)    R30       1
    I12(3)    OBJ       -45
    I12(3)    R0        -96
    I12(3)    R13       5
    I12(3)    R30       1
    I13(3)    OBJ       -131
    I13(3)    R0        57
    I13(3)    R14       17
    I13(3)    R30       1
    I14(3)    OBJ       -52
    I14(3)    R0        179
    I14(3)    R15       9
    I14(3)    R30       1
    I15(3)    OBJ       -49
    I15(3)    R0        -7
    I15(3)    R16       8
    I15(3)    R30       1
    I16(3)    OBJ       120
    I16(3)    R0        -180
    I16(3)    R17       12
    I16(3)    R30       1
    I17(2)    OBJ       -36
    I17(2)    R0        174
    I17(2)    R30       1
    I18(2)    OBJ       -70
    I18(2)    R0        9
    I18(2)    R30       1
    I19(3)    OBJ       -185
    I19(3)    R0        -141
    I19(3)    R20       9
    I19(3)    R30       1
    I20(3)    OBJ       -98
    I20(3)    R0        20
    I20(3)    R21       12
    I20(3)    R30       1
    I21(3)    OBJ       -33
    I21(3)    R0        190
    I21(3)    R22       12
    I21(3)    R30       1
    I22(3)    OBJ       114
    I22(3)    R0        -116
    I22(3)    R23       4
    I22(3)    R30       1
    I23(3)    OBJ       -189
    I23(3)    R0        -13
    I23(3)    R24       17
    I23(3)    R30       1
    I24(3)    OBJ       -176
    I24(3)    R0        -156
    I24(3)    R25       18
    I24(3)    R30       1
    I25(3)    OBJ       -197
    I25(3)    R0        85
    I25(3)    R26       3
    I25(3)    R30       1
    I26(3)    OBJ       179
    I26(3)    R0        -93
    I26(3)    R27       2
    I26(3)    R30       1
    I27(3)    OBJ       4
    I27(3)    R0        -79
    I27(3)    R28       3
    I27(3)    R30       1
    MARKER    'MARKER'                 'INTEND'
    C28(28)   OBJ       4
    C28(28)   R0        -10
    C28(28)   R1        14
    C28(28)   R2        18
    C28(28)   R3        15
    C28(28)   R4        4
    C28(28)   R5        7
    C28(28)   R6        13
    C28(28)   R7        10
    C28(28)   R8        12
    C28(28)   R9        13
    C28(28)   R10       13
    C28(28)   R11       10
    C28(28)   R12       3
    C28(28)   R14       5
    C28(28)   R15       17
    C28(28)   R16       10
    C28(28)   R17       18
    C28(28)   R19       -1
    C28(28)   R20       19
    C28(28)   R21       18
    C28(28)   R22       7
    C28(28)   R23       8
    C28(28)   R24       13
    C28(28)   R25       4
    C28(28)   R26       5
    C28(28)   R27       -1
    C28(28)   R28       15
    C28(28)   R29       7
    C29(28)   OBJ       3
    C29(28)   R0        4
    C29(28)   R1        2
    C29(28)   R2        3
    C29(28)   R3        3
    C29(28)   R4        18
    C29(28)   R5        2
    C29(28)   R6        11
    C29(28)   R7        3
    C29(28)   R8        16
    C29(28)   R9        19
    C29(28)   R10       8
    C29(28)   R11       16
    C29(28)   R12       1
    C29(28)   R13       2
    C29(28)   R14       8
    C29(28)   R15       2
    C29(28)   R16       6
    C29(28)   R17       16
    C29(28)   R19       13
    C29(28)   R21       4
    C29(28)   R22       8
    C29(28)   R23       11
    C29(28)   R24       10
    C29(28)   R25       16
    C29(28)   R26       7
    C29(28)   R27       16
    C29(28)   R28       18
    C29(28)   R29       4
    C30(1)    R1        1
    C31(1)    R2        1
    C32(1)    R3        1
    C33(1)    R4        1
    C34(1)    R5        1
    C35(1)    R6        1
    C36(1)    R7        1
    C37(1)    R8        1
    C38(1)    R9        1
    C39(1)    R10       1
    C40(1)    R11       1
    C41(1)    R12       1
    C42(1)    R13       1
    C43(1)    R14       1
    C44(1)    R15       1
    C45(1)    R16       1
    C46(1)    R17       1
    C47(1)    R18       1
    C48(1)    R19       1
    C49(1)    R20       1
    C50(1)    R21       1
    C51(1)    R22       1
    C52(1)    R23       1
    C53(1)    R24       1
    C54(1)    R25       1
    C55(1)    R26       1
    C56(1)    R27       1
    C57(1)    R28       1
    C58(1)    R29       1
    C59(1)    R30       1
RHS
    RHS1      R0        -10
    RHS1      R1        62
    RHS1      R2        88
    RHS1      R3        89
    RHS1      R4        92
    RHS1      R5        74
    RHS1      R6        81
    RHS1      R7        65
    RHS1      R8        53
    RHS1      R9        69
    RHS1      R10       92
    RHS1      R11       97
    RHS1      R12       80
    RHS1      R13       64
    RHS1      R14       85
    RHS1      R15       60
    RHS1      R16       69
    RHS1      R17       56
    RHS1      R18       92
    RHS1      R19       72
    RHS1      R20       57
    RHS1      R21       98
    RHS1      R22       74
    RHS1      R23       76
    RHS1      R24       67
    RHS1      R25       97
    RHS1      R26       56
    RHS1      R27       92
    RHS1      R28       89
    RHS1      R29       78
    RHS1      R30       9
BOUNDS
 UP BND1      I0(3)     1
 UP BND1      I1(3)     1
 UP BND1      I2(3)     1
 UP BND1      I3(3)     1
 UP BND1      I4(3)     1
 UP BND1      I5(3)     1
 UP BND1      I6(3)     1
 UP BND1      I7(3)     1
 UP BND1      I8(2)     1
 UP BND1      I9(3)     1
 UP BND1      I10(3)    1
 UP BND1      I11(3)    1
 UP BND1      I12(3)    1
 UP BND1      I13(3)    1
 UP BND1      I14(3)    1
 UP BND1      I15(3)    1
 UP BND1      I16(3)    1
 UP BND1      I17(2)    1
 UP BND1      I18(2)    1
 UP BND1      I19(3)    1
 UP BND1      I20(3)    1
 UP BND1      I21(3)    1
 UP BND1      I22(3)    1
 UP BND1      I23(3)    1
 UP BND1      I24(3)    1
 UP BND1      I25(3)    1
 UP BND1      I26(3)    1
 UP BND1      I27(3)    1
ENDATA
